
Gurobi 10.0.1 (linux64) logging started Sun Nov 26 15:40:24 2023

Set parameter LogFile to value "ArtificialInstance/ExperimentV2/S3T3K1/AdSp/gurobiDoSp61.txt"
Gurobi Optimizer version 10.0.1 build v10.0.1rc0 (linux64)

CPU model: AMD EPYC 7H12 64-Core Processor, instruction set [SSE2|AVX|AVX2]
Thread count: 128 physical cores, 128 logical processors, using up to 32 threads

Academic license 656792 - for non-commercial use only - registered to b.___@student.vu.nl
Optimize a model with 3052 rows, 2884 columns and 10916 nonzeros
Model fingerprint: 0x6804344f
Variable types: 0 continuous, 2884 integer (2884 binary)
Coefficient statistics:
  Matrix range     [1e+00, 1e+00]
  Objective range  [1e+00, 2e+01]
  Bounds range     [1e+00, 1e+00]
  RHS range        [1e+00, 1e+00]
Presolve removed 2450 rows and 2308 columns
Presolve time: 0.04s
Presolved: 602 rows, 576 columns, 2322 nonzeros
Variable types: 0 continuous, 576 integer (576 binary)
Found heuristic solution: objective 105.3512386
Found heuristic solution: objective 68.5871157

Root relaxation: objective 2.801671e+01, 118 iterations, 0.00 seconds (0.00 work units)

    Nodes    |    Current Node    |     Objective Bounds      |     Work
 Expl Unexpl |  Obj  Depth IntInf | Incumbent    BestBd   Gap | It/Node Time

*    0     0               0      28.0167071   28.01671  0.00%     -    0s

Explored 1 nodes (118 simplex iterations) in 0.06 seconds (0.03 work units)
Thread count was 32 (of 128 available processors)

Solution count 3: 28.0167 68.5871 105.351 

Optimal solution found (tolerance 1.00e-04)
Best objective 2.801670712704e+01, best bound 2.801670712704e+01, gap 0.0000%
